p cnf 606 2298
-606 36 0
-606 30 0
606 -30 -36 0
-605 -36 0
-605 -30 0
605 30 36 0
246 -605 0
246 -606 0
-246 606 605 0
-604 35 0
-604 29 0
604 -29 -35 0
-603 -35 0
-603 -29 0
603 29 35 0
245 -603 0
245 -604 0
-245 604 603 0
-602 34 0
-602 28 0
602 -28 -34 0
-601 -34 0
-601 -28 0
601 28 34 0
244 -601 0
244 -602 0
-244 602 601 0
-600 33 0
-600 27 0
600 -27 -33 0
-599 -33 0
-599 -27 0
599 27 33 0
243 -599 0
243 -600 0
-243 600 599 0
-598 32 0
-598 26 0
598 -26 -32 0
-597 -32 0
-597 -26 0
597 26 32 0
242 -597 0
242 -598 0
-242 598 597 0
-596 31 0
-596 25 0
596 -25 -31 0
-595 -31 0
-595 -25 0
595 25 31 0
241 -595 0
241 -596 0
-241 596 595 0
66 246 0
66 245 0
66 244 0
66 243 0
66 242 0
66 241 0
-66 -241 -242 -243 -244 -245 -246 0
-594 36 0
-594 24 0
594 -24 -36 0
-593 -36 0
-593 -24 0
593 24 36 0
240 -593 0
240 -594 0
-240 594 593 0
-592 35 0
-592 23 0
592 -23 -35 0
-591 -35 0
-591 -23 0
591 23 35 0
239 -591 0
239 -592 0
-239 592 591 0
-590 34 0
-590 22 0
590 -22 -34 0
-589 -34 0
-589 -22 0
589 22 34 0
238 -589 0
238 -590 0
-238 590 589 0
-588 33 0
-588 21 0
588 -21 -33 0
-587 -33 0
-587 -21 0
587 21 33 0
237 -587 0
237 -588 0
-237 588 587 0
-586 32 0
-586 20 0
586 -20 -32 0
-585 -32 0
-585 -20 0
585 20 32 0
236 -585 0
236 -586 0
-236 586 585 0
-584 31 0
-584 19 0
584 -19 -31 0
-583 -31 0
-583 -19 0
583 19 31 0
235 -583 0
235 -584 0
-235 584 583 0
65 240 0
65 239 0
65 238 0
65 237 0
65 236 0
65 235 0
-65 -235 -236 -237 -238 -239 -240 0
-582 30 0
-582 24 0
582 -24 -30 0
-581 -30 0
-581 -24 0
581 24 30 0
234 -581 0
234 -582 0
-234 582 581 0
-580 29 0
-580 23 0
580 -23 -29 0
-579 -29 0
-579 -23 0
579 23 29 0
233 -579 0
233 -580 0
-233 580 579 0
-578 28 0
-578 22 0
578 -22 -28 0
-577 -28 0
-577 -22 0
577 22 28 0
232 -577 0
232 -578 0
-232 578 577 0
-576 27 0
-576 21 0
576 -21 -27 0
-575 -27 0
-575 -21 0
575 21 27 0
231 -575 0
231 -576 0
-231 576 575 0
-574 26 0
-574 20 0
574 -20 -26 0
-573 -26 0
-573 -20 0
573 20 26 0
230 -573 0
230 -574 0
-230 574 573 0
-572 25 0
-572 19 0
572 -19 -25 0
-571 -25 0
-571 -19 0
571 19 25 0
229 -571 0
229 -572 0
-229 572 571 0
64 234 0
64 233 0
64 232 0
64 231 0
64 230 0
64 229 0
-64 -229 -230 -231 -232 -233 -234 0
-570 36 0
-570 18 0
570 -18 -36 0
-569 -36 0
-569 -18 0
569 18 36 0
228 -569 0
228 -570 0
-228 570 569 0
-568 35 0
-568 17 0
568 -17 -35 0
-567 -35 0
-567 -17 0
567 17 35 0
227 -567 0
227 -568 0
-227 568 567 0
-566 34 0
-566 16 0
566 -16 -34 0
-565 -34 0
-565 -16 0
565 16 34 0
226 -565 0
226 -566 0
-226 566 565 0
-564 33 0
-564 15 0
564 -15 -33 0
-563 -33 0
-563 -15 0
563 15 33 0
225 -563 0
225 -564 0
-225 564 563 0
-562 32 0
-562 14 0
562 -14 -32 0
-561 -32 0
-561 -14 0
561 14 32 0
224 -561 0
224 -562 0
-224 562 561 0
-560 31 0
-560 13 0
560 -13 -31 0
-559 -31 0
-559 -13 0
559 13 31 0
223 -559 0
223 -560 0
-223 560 559 0
63 228 0
63 227 0
63 226 0
63 225 0
63 224 0
63 223 0
-63 -223 -224 -225 -226 -227 -228 0
-558 30 0
-558 18 0
558 -18 -30 0
-557 -30 0
-557 -18 0
557 18 30 0
222 -557 0
222 -558 0
-222 558 557 0
-556 29 0
-556 17 0
556 -17 -29 0
-555 -29 0
-555 -17 0
555 17 29 0
221 -555 0
221 -556 0
-221 556 555 0
-554 28 0
-554 16 0
554 -16 -28 0
-553 -28 0
-553 -16 0
553 16 28 0
220 -553 0
220 -554 0
-220 554 553 0
-552 27 0
-552 15 0
552 -15 -27 0
-551 -27 0
-551 -15 0
551 15 27 0
219 -551 0
219 -552 0
-219 552 551 0
-550 26 0
-550 14 0
550 -14 -26 0
-549 -26 0
-549 -14 0
549 14 26 0
218 -549 0
218 -550 0
-218 550 549 0
-548 25 0
-548 13 0
548 -13 -25 0
-547 -25 0
-547 -13 0
547 13 25 0
217 -547 0
217 -548 0
-217 548 547 0
62 222 0
62 221 0
62 220 0
62 219 0
62 218 0
62 217 0
-62 -217 -218 -219 -220 -221 -222 0
-546 24 0
-546 18 0
546 -18 -24 0
-545 -24 0
-545 -18 0
545 18 24 0
216 -545 0
216 -546 0
-216 546 545 0
-544 23 0
-544 17 0
544 -17 -23 0
-543 -23 0
-543 -17 0
543 17 23 0
215 -543 0
215 -544 0
-215 544 543 0
-542 22 0
-542 16 0
542 -16 -22 0
-541 -22 0
-541 -16 0
541 16 22 0
214 -541 0
214 -542 0
-214 542 541 0
-540 21 0
-540 15 0
540 -15 -21 0
-539 -21 0
-539 -15 0
539 15 21 0
213 -539 0
213 -540 0
-213 540 539 0
-538 20 0
-538 14 0
538 -14 -20 0
-537 -20 0
-537 -14 0
537 14 20 0
212 -537 0
212 -538 0
-212 538 537 0
-536 19 0
-536 13 0
536 -13 -19 0
-535 -19 0
-535 -13 0
535 13 19 0
211 -535 0
211 -536 0
-211 536 535 0
61 216 0
61 215 0
61 214 0
61 213 0
61 212 0
61 211 0
-61 -211 -212 -213 -214 -215 -216 0
-534 36 0
-534 12 0
534 -12 -36 0
-533 -36 0
-533 -12 0
533 12 36 0
210 -533 0
210 -534 0
-210 534 533 0
-532 35 0
-532 11 0
532 -11 -35 0
-531 -35 0
-531 -11 0
531 11 35 0
209 -531 0
209 -532 0
-209 532 531 0
-530 34 0
-530 10 0
530 -10 -34 0
-529 -34 0
-529 -10 0
529 10 34 0
208 -529 0
208 -530 0
-208 530 529 0
-528 33 0
-528 9 0
528 -9 -33 0
-527 -33 0
-527 -9 0
527 9 33 0
207 -527 0
207 -528 0
-207 528 527 0
-526 32 0
-526 8 0
526 -8 -32 0
-525 -32 0
-525 -8 0
525 8 32 0
206 -525 0
206 -526 0
-206 526 525 0
-524 31 0
-524 7 0
524 -7 -31 0
-523 -31 0
-523 -7 0
523 7 31 0
205 -523 0
205 -524 0
-205 524 523 0
60 210 0
60 209 0
60 208 0
60 207 0
60 206 0
60 205 0
-60 -205 -206 -207 -208 -209 -210 0
-522 30 0
-522 12 0
522 -12 -30 0
-521 -30 0
-521 -12 0
521 12 30 0
204 -521 0
204 -522 0
-204 522 521 0
-520 29 0
-520 11 0
520 -11 -29 0
-519 -29 0
-519 -11 0
519 11 29 0
203 -519 0
203 -520 0
-203 520 519 0
-518 28 0
-518 10 0
518 -10 -28 0
-517 -28 0
-517 -10 0
517 10 28 0
202 -517 0
202 -518 0
-202 518 517 0
-516 27 0
-516 9 0
516 -9 -27 0
-515 -27 0
-515 -9 0
515 9 27 0
201 -515 0
201 -516 0
-201 516 515 0
-514 26 0
-514 8 0
514 -8 -26 0
-513 -26 0
-513 -8 0
513 8 26 0
200 -513 0
200 -514 0
-200 514 513 0
-512 25 0
-512 7 0
512 -7 -25 0
-511 -25 0
-511 -7 0
511 7 25 0
199 -511 0
199 -512 0
-199 512 511 0
59 204 0
59 203 0
59 202 0
59 201 0
59 200 0
59 199 0
-59 -199 -200 -201 -202 -203 -204 0
-510 24 0
-510 12 0
510 -12 -24 0
-509 -24 0
-509 -12 0
509 12 24 0
198 -509 0
198 -510 0
-198 510 509 0
-508 23 0
-508 11 0
508 -11 -23 0
-507 -23 0
-507 -11 0
507 11 23 0
197 -507 0
197 -508 0
-197 508 507 0
-506 22 0
-506 10 0
506 -10 -22 0
-505 -22 0
-505 -10 0
505 10 22 0
196 -505 0
196 -506 0
-196 506 505 0
-504 21 0
-504 9 0
504 -9 -21 0
-503 -21 0
-503 -9 0
503 9 21 0
195 -503 0
195 -504 0
-195 504 503 0
-502 20 0
-502 8 0
502 -8 -20 0
-501 -20 0
-501 -8 0
501 8 20 0
194 -501 0
194 -502 0
-194 502 501 0
-500 19 0
-500 7 0
500 -7 -19 0
-499 -19 0
-499 -7 0
499 7 19 0
193 -499 0
193 -500 0
-193 500 499 0
58 198 0
58 197 0
58 196 0
58 195 0
58 194 0
58 193 0
-58 -193 -194 -195 -196 -197 -198 0
-498 18 0
-498 12 0
498 -12 -18 0
-497 -18 0
-497 -12 0
497 12 18 0
192 -497 0
192 -498 0
-192 498 497 0
-496 17 0
-496 11 0
496 -11 -17 0
-495 -17 0
-495 -11 0
495 11 17 0
191 -495 0
191 -496 0
-191 496 495 0
-494 16 0
-494 10 0
494 -10 -16 0
-493 -16 0
-493 -10 0
493 10 16 0
190 -493 0
190 -494 0
-190 494 493 0
-492 15 0
-492 9 0
492 -9 -15 0
-491 -15 0
-491 -9 0
491 9 15 0
189 -491 0
189 -492 0
-189 492 491 0
-490 14 0
-490 8 0
490 -8 -14 0
-489 -14 0
-489 -8 0
489 8 14 0
188 -489 0
188 -490 0
-188 490 489 0
-488 13 0
-488 7 0
488 -7 -13 0
-487 -13 0
-487 -7 0
487 7 13 0
187 -487 0
187 -488 0
-187 488 487 0
57 192 0
57 191 0
57 190 0
57 189 0
57 188 0
57 187 0
-57 -187 -188 -189 -190 -191 -192 0
-486 36 0
-486 6 0
486 -6 -36 0
-485 -36 0
-485 -6 0
485 6 36 0
186 -485 0
186 -486 0
-186 486 485 0
-484 35 0
-484 5 0
484 -5 -35 0
-483 -35 0
-483 -5 0
483 5 35 0
185 -483 0
185 -484 0
-185 484 483 0
-482 34 0
-482 4 0
482 -4 -34 0
-481 -34 0
-481 -4 0
481 4 34 0
184 -481 0
184 -482 0
-184 482 481 0
-480 33 0
-480 3 0
480 -3 -33 0
-479 -33 0
-479 -3 0
479 3 33 0
183 -479 0
183 -480 0
-183 480 479 0
-478 32 0
-478 2 0
478 -2 -32 0
-477 -32 0
-477 -2 0
477 2 32 0
182 -477 0
182 -478 0
-182 478 477 0
-476 31 0
-476 1 0
476 -1 -31 0
-475 -31 0
-475 -1 0
475 1 31 0
181 -475 0
181 -476 0
-181 476 475 0
56 186 0
56 185 0
56 184 0
56 183 0
56 182 0
56 181 0
-56 -181 -182 -183 -184 -185 -186 0
-474 30 0
-474 6 0
474 -6 -30 0
-473 -30 0
-473 -6 0
473 6 30 0
180 -473 0
180 -474 0
-180 474 473 0
-472 29 0
-472 5 0
472 -5 -29 0
-471 -29 0
-471 -5 0
471 5 29 0
179 -471 0
179 -472 0
-179 472 471 0
-470 28 0
-470 4 0
470 -4 -28 0
-469 -28 0
-469 -4 0
469 4 28 0
178 -469 0
178 -470 0
-178 470 469 0
-468 27 0
-468 3 0
468 -3 -27 0
-467 -27 0
-467 -3 0
467 3 27 0
177 -467 0
177 -468 0
-177 468 467 0
-466 26 0
-466 2 0
466 -2 -26 0
-465 -26 0
-465 -2 0
465 2 26 0
176 -465 0
176 -466 0
-176 466 465 0
-464 25 0
-464 1 0
464 -1 -25 0
-463 -25 0
-463 -1 0
463 1 25 0
175 -463 0
175 -464 0
-175 464 463 0
55 180 0
55 179 0
55 178 0
55 177 0
55 176 0
55 175 0
-55 -175 -176 -177 -178 -179 -180 0
-462 24 0
-462 6 0
462 -6 -24 0
-461 -24 0
-461 -6 0
461 6 24 0
174 -461 0
174 -462 0
-174 462 461 0
-460 23 0
-460 5 0
460 -5 -23 0
-459 -23 0
-459 -5 0
459 5 23 0
173 -459 0
173 -460 0
-173 460 459 0
-458 22 0
-458 4 0
458 -4 -22 0
-457 -22 0
-457 -4 0
457 4 22 0
172 -457 0
172 -458 0
-172 458 457 0
-456 21 0
-456 3 0
456 -3 -21 0
-455 -21 0
-455 -3 0
455 3 21 0
171 -455 0
171 -456 0
-171 456 455 0
-454 20 0
-454 2 0
454 -2 -20 0
-453 -20 0
-453 -2 0
453 2 20 0
170 -453 0
170 -454 0
-170 454 453 0
-452 19 0
-452 1 0
452 -1 -19 0
-451 -19 0
-451 -1 0
451 1 19 0
169 -451 0
169 -452 0
-169 452 451 0
54 174 0
54 173 0
54 172 0
54 171 0
54 170 0
54 169 0
-54 -169 -170 -171 -172 -173 -174 0
-450 18 0
-450 6 0
450 -6 -18 0
-449 -18 0
-449 -6 0
449 6 18 0
168 -449 0
168 -450 0
-168 450 449 0
-448 17 0
-448 5 0
448 -5 -17 0
-447 -17 0
-447 -5 0
447 5 17 0
167 -447 0
167 -448 0
-167 448 447 0
-446 16 0
-446 4 0
446 -4 -16 0
-445 -16 0
-445 -4 0
445 4 16 0
166 -445 0
166 -446 0
-166 446 445 0
-444 15 0
-444 3 0
444 -3 -15 0
-443 -15 0
-443 -3 0
443 3 15 0
165 -443 0
165 -444 0
-165 444 443 0
-442 14 0
-442 2 0
442 -2 -14 0
-441 -14 0
-441 -2 0
441 2 14 0
164 -441 0
164 -442 0
-164 442 441 0
-440 13 0
-440 1 0
440 -1 -13 0
-439 -13 0
-439 -1 0
439 1 13 0
163 -439 0
163 -440 0
-163 440 439 0
53 168 0
53 167 0
53 166 0
53 165 0
53 164 0
53 163 0
-53 -163 -164 -165 -166 -167 -168 0
-438 12 0
-438 6 0
438 -6 -12 0
-437 -12 0
-437 -6 0
437 6 12 0
162 -437 0
162 -438 0
-162 438 437 0
-436 11 0
-436 5 0
436 -5 -11 0
-435 -11 0
-435 -5 0
435 5 11 0
161 -435 0
161 -436 0
-161 436 435 0
-434 10 0
-434 4 0
434 -4 -10 0
-433 -10 0
-433 -4 0
433 4 10 0
160 -433 0
160 -434 0
-160 434 433 0
-432 9 0
-432 3 0
432 -3 -9 0
-431 -9 0
-431 -3 0
431 3 9 0
159 -431 0
159 -432 0
-159 432 431 0
-430 8 0
-430 2 0
430 -2 -8 0
-429 -8 0
-429 -2 0
429 2 8 0
158 -429 0
158 -430 0
-158 430 429 0
-428 7 0
-428 1 0
428 -1 -7 0
-427 -7 0
-427 -1 0
427 1 7 0
157 -427 0
157 -428 0
-157 428 427 0
52 162 0
52 161 0
52 160 0
52 159 0
52 158 0
52 157 0
-52 -157 -158 -159 -160 -161 -162 0
-426 36 0
-426 30 0
426 -30 -36 0
-425 -36 0
-425 -30 0
425 30 36 0
156 -425 0
156 -426 0
-156 426 425 0
-424 35 0
-424 29 0
424 -29 -35 0
-423 -35 0
-423 -29 0
423 29 35 0
155 -423 0
155 -424 0
-155 424 423 0
-422 34 0
-422 28 0
422 -28 -34 0
-421 -34 0
-421 -28 0
421 28 34 0
154 -421 0
154 -422 0
-154 422 421 0
-420 33 0
-420 27 0
420 -27 -33 0
-419 -33 0
-419 -27 0
419 27 33 0
153 -419 0
153 -420 0
-153 420 419 0
-418 32 0
-418 26 0
418 -26 -32 0
-417 -32 0
-417 -26 0
417 26 32 0
152 -417 0
152 -418 0
-152 418 417 0
-416 31 0
-416 25 0
416 -25 -31 0
-415 -31 0
-415 -25 0
415 25 31 0
151 -415 0
151 -416 0
-151 416 415 0
51 156 0
51 155 0
51 154 0
51 153 0
51 152 0
51 151 0
-51 -151 -152 -153 -154 -155 -156 0
-414 36 0
-414 24 0
414 -24 -36 0
-413 -36 0
-413 -24 0
413 24 36 0
150 -413 0
150 -414 0
-150 414 413 0
-412 35 0
-412 23 0
412 -23 -35 0
-411 -35 0
-411 -23 0
411 23 35 0
149 -411 0
149 -412 0
-149 412 411 0
-410 34 0
-410 22 0
410 -22 -34 0
-409 -34 0
-409 -22 0
409 22 34 0
148 -409 0
148 -410 0
-148 410 409 0
-408 33 0
-408 21 0
408 -21 -33 0
-407 -33 0
-407 -21 0
407 21 33 0
147 -407 0
147 -408 0
-147 408 407 0
-406 32 0
-406 20 0
406 -20 -32 0
-405 -32 0
-405 -20 0
405 20 32 0
146 -405 0
146 -406 0
-146 406 405 0
-404 31 0
-404 19 0
404 -19 -31 0
-403 -31 0
-403 -19 0
403 19 31 0
145 -403 0
145 -404 0
-145 404 403 0
50 150 0
50 149 0
50 148 0
50 147 0
50 146 0
50 145 0
-50 -145 -146 -147 -148 -149 -150 0
-402 30 0
-402 24 0
402 -24 -30 0
-401 -30 0
-401 -24 0
401 24 30 0
144 -401 0
144 -402 0
-144 402 401 0
-400 29 0
-400 23 0
400 -23 -29 0
-399 -29 0
-399 -23 0
399 23 29 0
143 -399 0
143 -400 0
-143 400 399 0
-398 28 0
-398 22 0
398 -22 -28 0
-397 -28 0
-397 -22 0
397 22 28 0
142 -397 0
142 -398 0
-142 398 397 0
-396 27 0
-396 21 0
396 -21 -27 0
-395 -27 0
-395 -21 0
395 21 27 0
141 -395 0
141 -396 0
-141 396 395 0
-394 26 0
-394 20 0
394 -20 -26 0
-393 -26 0
-393 -20 0
393 20 26 0
140 -393 0
140 -394 0
-140 394 393 0
-392 25 0
-392 19 0
392 -19 -25 0
-391 -25 0
-391 -19 0
391 19 25 0
139 -391 0
139 -392 0
-139 392 391 0
49 144 0
49 143 0
49 142 0
49 141 0
49 140 0
49 139 0
-49 -139 -140 -141 -142 -143 -144 0
-390 36 0
-390 18 0
390 -18 -36 0
-389 -36 0
-389 -18 0
389 18 36 0
138 -389 0
138 -390 0
-138 390 389 0
-388 35 0
-388 17 0
388 -17 -35 0
-387 -35 0
-387 -17 0
387 17 35 0
137 -387 0
137 -388 0
-137 388 387 0
-386 34 0
-386 16 0
386 -16 -34 0
-385 -34 0
-385 -16 0
385 16 34 0
136 -385 0
136 -386 0
-136 386 385 0
-384 33 0
-384 15 0
384 -15 -33 0
-383 -33 0
-383 -15 0
383 15 33 0
135 -383 0
135 -384 0
-135 384 383 0
-382 32 0
-382 14 0
382 -14 -32 0
-381 -32 0
-381 -14 0
381 14 32 0
134 -381 0
134 -382 0
-134 382 381 0
-380 31 0
-380 13 0
380 -13 -31 0
-379 -31 0
-379 -13 0
379 13 31 0
133 -379 0
133 -380 0
-133 380 379 0
48 138 0
48 137 0
48 136 0
48 135 0
48 134 0
48 133 0
-48 -133 -134 -135 -136 -137 -138 0
-378 30 0
-378 18 0
378 -18 -30 0
-377 -30 0
-377 -18 0
377 18 30 0
132 -377 0
132 -378 0
-132 378 377 0
-376 29 0
-376 17 0
376 -17 -29 0
-375 -29 0
-375 -17 0
375 17 29 0
131 -375 0
131 -376 0
-131 376 375 0
-374 28 0
-374 16 0
374 -16 -28 0
-373 -28 0
-373 -16 0
373 16 28 0
130 -373 0
130 -374 0
-130 374 373 0
-372 27 0
-372 15 0
372 -15 -27 0
-371 -27 0
-371 -15 0
371 15 27 0
129 -371 0
129 -372 0
-129 372 371 0
-370 26 0
-370 14 0
370 -14 -26 0
-369 -26 0
-369 -14 0
369 14 26 0
128 -369 0
128 -370 0
-128 370 369 0
-368 25 0
-368 13 0
368 -13 -25 0
-367 -25 0
-367 -13 0
367 13 25 0
127 -367 0
127 -368 0
-127 368 367 0
47 132 0
47 131 0
47 130 0
47 129 0
47 128 0
47 127 0
-47 -127 -128 -129 -130 -131 -132 0
-366 24 0
-366 18 0
366 -18 -24 0
-365 -24 0
-365 -18 0
365 18 24 0
126 -365 0
126 -366 0
-126 366 365 0
-364 23 0
-364 17 0
364 -17 -23 0
-363 -23 0
-363 -17 0
363 17 23 0
125 -363 0
125 -364 0
-125 364 363 0
-362 22 0
-362 16 0
362 -16 -22 0
-361 -22 0
-361 -16 0
361 16 22 0
124 -361 0
124 -362 0
-124 362 361 0
-360 21 0
-360 15 0
360 -15 -21 0
-359 -21 0
-359 -15 0
359 15 21 0
123 -359 0
123 -360 0
-123 360 359 0
-358 20 0
-358 14 0
358 -14 -20 0
-357 -20 0
-357 -14 0
357 14 20 0
122 -357 0
122 -358 0
-122 358 357 0
-356 19 0
-356 13 0
356 -13 -19 0
-355 -19 0
-355 -13 0
355 13 19 0
121 -355 0
121 -356 0
-121 356 355 0
46 126 0
46 125 0
46 124 0
46 123 0
46 122 0
46 121 0
-46 -121 -122 -123 -124 -125 -126 0
-354 36 0
-354 12 0
354 -12 -36 0
-353 -36 0
-353 -12 0
353 12 36 0
120 -353 0
120 -354 0
-120 354 353 0
-352 35 0
-352 11 0
352 -11 -35 0
-351 -35 0
-351 -11 0
351 11 35 0
119 -351 0
119 -352 0
-119 352 351 0
-350 34 0
-350 10 0
350 -10 -34 0
-349 -34 0
-349 -10 0
349 10 34 0
118 -349 0
118 -350 0
-118 350 349 0
-348 33 0
-348 9 0
348 -9 -33 0
-347 -33 0
-347 -9 0
347 9 33 0
117 -347 0
117 -348 0
-117 348 347 0
-346 32 0
-346 8 0
346 -8 -32 0
-345 -32 0
-345 -8 0
345 8 32 0
116 -345 0
116 -346 0
-116 346 345 0
-344 31 0
-344 7 0
344 -7 -31 0
-343 -31 0
-343 -7 0
343 7 31 0
115 -343 0
115 -344 0
-115 344 343 0
45 120 0
45 119 0
45 118 0
45 117 0
45 116 0
45 115 0
-45 -115 -116 -117 -118 -119 -120 0
-342 30 0
-342 12 0
342 -12 -30 0
-341 -30 0
-341 -12 0
341 12 30 0
114 -341 0
114 -342 0
-114 342 341 0
-340 29 0
-340 11 0
340 -11 -29 0
-339 -29 0
-339 -11 0
339 11 29 0
113 -339 0
113 -340 0
-113 340 339 0
-338 28 0
-338 10 0
338 -10 -28 0
-337 -28 0
-337 -10 0
337 10 28 0
112 -337 0
112 -338 0
-112 338 337 0
-336 27 0
-336 9 0
336 -9 -27 0
-335 -27 0
-335 -9 0
335 9 27 0
111 -335 0
111 -336 0
-111 336 335 0
-334 26 0
-334 8 0
334 -8 -26 0
-333 -26 0
-333 -8 0
333 8 26 0
110 -333 0
110 -334 0
-110 334 333 0
-332 25 0
-332 7 0
332 -7 -25 0
-331 -25 0
-331 -7 0
331 7 25 0
109 -331 0
109 -332 0
-109 332 331 0
44 114 0
44 113 0
44 112 0
44 111 0
44 110 0
44 109 0
-44 -109 -110 -111 -112 -113 -114 0
-330 24 0
-330 12 0
330 -12 -24 0
-329 -24 0
-329 -12 0
329 12 24 0
108 -329 0
108 -330 0
-108 330 329 0
-328 23 0
-328 11 0
328 -11 -23 0
-327 -23 0
-327 -11 0
327 11 23 0
107 -327 0
107 -328 0
-107 328 327 0
-326 22 0
-326 10 0
326 -10 -22 0
-325 -22 0
-325 -10 0
325 10 22 0
106 -325 0
106 -326 0
-106 326 325 0
-324 21 0
-324 9 0
324 -9 -21 0
-323 -21 0
-323 -9 0
323 9 21 0
105 -323 0
105 -324 0
-105 324 323 0
-322 20 0
-322 8 0
322 -8 -20 0
-321 -20 0
-321 -8 0
321 8 20 0
104 -321 0
104 -322 0
-104 322 321 0
-320 19 0
-320 7 0
320 -7 -19 0
-319 -19 0
-319 -7 0
319 7 19 0
103 -319 0
103 -320 0
-103 320 319 0
43 108 0
43 107 0
43 106 0
43 105 0
43 104 0
43 103 0
-43 -103 -104 -105 -106 -107 -108 0
-318 18 0
-318 12 0
318 -12 -18 0
-317 -18 0
-317 -12 0
317 12 18 0
102 -317 0
102 -318 0
-102 318 317 0
-316 17 0
-316 11 0
316 -11 -17 0
-315 -17 0
-315 -11 0
315 11 17 0
101 -315 0
101 -316 0
-101 316 315 0
-314 16 0
-314 10 0
314 -10 -16 0
-313 -16 0
-313 -10 0
313 10 16 0
100 -313 0
100 -314 0
-100 314 313 0
-312 15 0
-312 9 0
312 -9 -15 0
-311 -15 0
-311 -9 0
311 9 15 0
99 -311 0
99 -312 0
-99 312 311 0
-310 14 0
-310 8 0
310 -8 -14 0
-309 -14 0
-309 -8 0
309 8 14 0
98 -309 0
98 -310 0
-98 310 309 0
-308 13 0
-308 7 0
308 -7 -13 0
-307 -13 0
-307 -7 0
307 7 13 0
97 -307 0
97 -308 0
-97 308 307 0
42 102 0
42 101 0
42 100 0
42 99 0
42 98 0
42 97 0
-42 -97 -98 -99 -100 -101 -102 0
-306 36 0
-306 6 0
306 -6 -36 0
-305 -36 0
-305 -6 0
305 6 36 0
96 -305 0
96 -306 0
-96 306 305 0
-304 35 0
-304 5 0
304 -5 -35 0
-303 -35 0
-303 -5 0
303 5 35 0
95 -303 0
95 -304 0
-95 304 303 0
-302 34 0
-302 4 0
302 -4 -34 0
-301 -34 0
-301 -4 0
301 4 34 0
94 -301 0
94 -302 0
-94 302 301 0
-300 33 0
-300 3 0
300 -3 -33 0
-299 -33 0
-299 -3 0
299 3 33 0
93 -299 0
93 -300 0
-93 300 299 0
-298 32 0
-298 2 0
298 -2 -32 0
-297 -32 0
-297 -2 0
297 2 32 0
92 -297 0
92 -298 0
-92 298 297 0
-296 31 0
-296 1 0
296 -1 -31 0
-295 -31 0
-295 -1 0
295 1 31 0
91 -295 0
91 -296 0
-91 296 295 0
41 96 0
41 95 0
41 94 0
41 93 0
41 92 0
41 91 0
-41 -91 -92 -93 -94 -95 -96 0
-294 30 0
-294 6 0
294 -6 -30 0
-293 -30 0
-293 -6 0
293 6 30 0
90 -293 0
90 -294 0
-90 294 293 0
-292 29 0
-292 5 0
292 -5 -29 0
-291 -29 0
-291 -5 0
291 5 29 0
89 -291 0
89 -292 0
-89 292 291 0
-290 28 0
-290 4 0
290 -4 -28 0
-289 -28 0
-289 -4 0
289 4 28 0
88 -289 0
88 -290 0
-88 290 289 0
-288 27 0
-288 3 0
288 -3 -27 0
-287 -27 0
-287 -3 0
287 3 27 0
87 -287 0
87 -288 0
-87 288 287 0
-286 26 0
-286 2 0
286 -2 -26 0
-285 -26 0
-285 -2 0
285 2 26 0
86 -285 0
86 -286 0
-86 286 285 0
-284 25 0
-284 1 0
284 -1 -25 0
-283 -25 0
-283 -1 0
283 1 25 0
85 -283 0
85 -284 0
-85 284 283 0
40 90 0
40 89 0
40 88 0
40 87 0
40 86 0
40 85 0
-40 -85 -86 -87 -88 -89 -90 0
-282 24 0
-282 6 0
282 -6 -24 0
-281 -24 0
-281 -6 0
281 6 24 0
84 -281 0
84 -282 0
-84 282 281 0
-280 23 0
-280 5 0
280 -5 -23 0
-279 -23 0
-279 -5 0
279 5 23 0
83 -279 0
83 -280 0
-83 280 279 0
-278 22 0
-278 4 0
278 -4 -22 0
-277 -22 0
-277 -4 0
277 4 22 0
82 -277 0
82 -278 0
-82 278 277 0
-276 21 0
-276 3 0
276 -3 -21 0
-275 -21 0
-275 -3 0
275 3 21 0
81 -275 0
81 -276 0
-81 276 275 0
-274 20 0
-274 2 0
274 -2 -20 0
-273 -20 0
-273 -2 0
273 2 20 0
80 -273 0
80 -274 0
-80 274 273 0
-272 19 0
-272 1 0
272 -1 -19 0
-271 -19 0
-271 -1 0
271 1 19 0
79 -271 0
79 -272 0
-79 272 271 0
39 84 0
39 83 0
39 82 0
39 81 0
39 80 0
39 79 0
-39 -79 -80 -81 -82 -83 -84 0
-270 18 0
-270 6 0
270 -6 -18 0
-269 -18 0
-269 -6 0
269 6 18 0
78 -269 0
78 -270 0
-78 270 269 0
-268 17 0
-268 5 0
268 -5 -17 0
-267 -17 0
-267 -5 0
267 5 17 0
77 -267 0
77 -268 0
-77 268 267 0
-266 16 0
-266 4 0
266 -4 -16 0
-265 -16 0
-265 -4 0
265 4 16 0
76 -265 0
76 -266 0
-76 266 265 0
-264 15 0
-264 3 0
264 -3 -15 0
-263 -15 0
-263 -3 0
263 3 15 0
75 -263 0
75 -264 0
-75 264 263 0
-262 14 0
-262 2 0
262 -2 -14 0
-261 -14 0
-261 -2 0
261 2 14 0
74 -261 0
74 -262 0
-74 262 261 0
-260 13 0
-260 1 0
260 -1 -13 0
-259 -13 0
-259 -1 0
259 1 13 0
73 -259 0
73 -260 0
-73 260 259 0
38 78 0
38 77 0
38 76 0
38 75 0
38 74 0
38 73 0
-38 -73 -74 -75 -76 -77 -78 0
-258 12 0
-258 6 0
258 -6 -12 0
-257 -12 0
-257 -6 0
257 6 12 0
72 -257 0
72 -258 0
-72 258 257 0
-256 11 0
-256 5 0
256 -5 -11 0
-255 -11 0
-255 -5 0
255 5 11 0
71 -255 0
71 -256 0
-71 256 255 0
-254 10 0
-254 4 0
254 -4 -10 0
-253 -10 0
-253 -4 0
253 4 10 0
70 -253 0
70 -254 0
-70 254 253 0
-252 9 0
-252 3 0
252 -3 -9 0
-251 -9 0
-251 -3 0
251 3 9 0
69 -251 0
69 -252 0
-69 252 251 0
-250 8 0
-250 2 0
250 -2 -8 0
-249 -8 0
-249 -2 0
249 2 8 0
68 -249 0
68 -250 0
-68 250 249 0
-248 7 0
-248 1 0
248 -1 -7 0
-247 -7 0
-247 -1 0
247 1 7 0
67 -247 0
67 -248 0
-67 248 247 0
37 72 0
37 71 0
37 70 0
37 69 0
37 68 0
37 67 0
-37 -67 -68 -69 -70 -71 -72 0
-6 -12 -18 -24 0
6 12 18 24 0
-31 -32 -33 -34 0
31 32 33 34 0
-6 -12 -18 -30 0
6 12 18 30 0
-31 -32 -33 -35 0
31 32 33 35 0
-6 -12 -24 -30 0
6 12 24 30 0
-31 -32 -34 -35 0
31 32 34 35 0
-6 -18 -24 -30 0
6 18 24 30 0
-31 -33 -34 -35 0
31 33 34 35 0
-12 -18 -24 -30 0
12 18 24 30 0
-32 -33 -34 -35 0
32 33 34 35 0
-6 -12 -18 -36 0
6 12 18 36 0
-31 -32 -33 -36 0
31 32 33 36 0
-6 -12 -24 -36 0
6 12 24 36 0
-31 -32 -34 -36 0
31 32 34 36 0
-6 -18 -24 -36 0
6 18 24 36 0
-31 -33 -34 -36 0
31 33 34 36 0
-12 -18 -24 -36 0
12 18 24 36 0
-32 -33 -34 -36 0
32 33 34 36 0
-6 -12 -30 -36 0
6 12 30 36 0
-31 -32 -35 -36 0
31 32 35 36 0
-6 -18 -30 -36 0
6 18 30 36 0
-31 -33 -35 -36 0
31 33 35 36 0
-12 -18 -30 -36 0
12 18 30 36 0
-32 -33 -35 -36 0
32 33 35 36 0
-6 -24 -30 -36 0
6 24 30 36 0
-31 -34 -35 -36 0
31 34 35 36 0
-12 -24 -30 -36 0
12 24 30 36 0
-32 -34 -35 -36 0
32 34 35 36 0
-18 -24 -30 -36 0
18 24 30 36 0
-33 -34 -35 -36 0
33 34 35 36 0
-5 -11 -17 -23 0
5 11 17 23 0
-25 -26 -27 -28 0
25 26 27 28 0
-5 -11 -17 -29 0
5 11 17 29 0
-25 -26 -27 -29 0
25 26 27 29 0
-5 -11 -23 -29 0
5 11 23 29 0
-25 -26 -28 -29 0
25 26 28 29 0
-5 -17 -23 -29 0
5 17 23 29 0
-25 -27 -28 -29 0
25 27 28 29 0
-11 -17 -23 -29 0
11 17 23 29 0
-26 -27 -28 -29 0
26 27 28 29 0
-5 -11 -17 -35 0
5 11 17 35 0
-25 -26 -27 -30 0
25 26 27 30 0
-5 -11 -23 -35 0
5 11 23 35 0
-25 -26 -28 -30 0
25 26 28 30 0
-5 -17 -23 -35 0
5 17 23 35 0
-25 -27 -28 -30 0
25 27 28 30 0
-11 -17 -23 -35 0
11 17 23 35 0
-26 -27 -28 -30 0
26 27 28 30 0
-5 -11 -29 -35 0
5 11 29 35 0
-25 -26 -29 -30 0
25 26 29 30 0
-5 -17 -29 -35 0
5 17 29 35 0
-25 -27 -29 -30 0
25 27 29 30 0
-11 -17 -29 -35 0
11 17 29 35 0
-26 -27 -29 -30 0
26 27 29 30 0
-5 -23 -29 -35 0
5 23 29 35 0
-25 -28 -29 -30 0
25 28 29 30 0
-11 -23 -29 -35 0
11 23 29 35 0
-26 -28 -29 -30 0
26 28 29 30 0
-17 -23 -29 -35 0
17 23 29 35 0
-27 -28 -29 -30 0
27 28 29 30 0
-4 -10 -16 -22 0
4 10 16 22 0
-19 -20 -21 -22 0
19 20 21 22 0
-4 -10 -16 -28 0
4 10 16 28 0
-19 -20 -21 -23 0
19 20 21 23 0
-4 -10 -22 -28 0
4 10 22 28 0
-19 -20 -22 -23 0
19 20 22 23 0
-4 -16 -22 -28 0
4 16 22 28 0
-19 -21 -22 -23 0
19 21 22 23 0
-10 -16 -22 -28 0
10 16 22 28 0
-20 -21 -22 -23 0
20 21 22 23 0
-4 -10 -16 -34 0
4 10 16 34 0
-19 -20 -21 -24 0
19 20 21 24 0
-4 -10 -22 -34 0
4 10 22 34 0
-19 -20 -22 -24 0
19 20 22 24 0
-4 -16 -22 -34 0
4 16 22 34 0
-19 -21 -22 -24 0
19 21 22 24 0
-10 -16 -22 -34 0
10 16 22 34 0
-20 -21 -22 -24 0
20 21 22 24 0
-4 -10 -28 -34 0
4 10 28 34 0
-19 -20 -23 -24 0
19 20 23 24 0
-4 -16 -28 -34 0
4 16 28 34 0
-19 -21 -23 -24 0
19 21 23 24 0
-10 -16 -28 -34 0
10 16 28 34 0
-20 -21 -23 -24 0
20 21 23 24 0
-4 -22 -28 -34 0
4 22 28 34 0
-19 -22 -23 -24 0
19 22 23 24 0
-10 -22 -28 -34 0
10 22 28 34 0
-20 -22 -23 -24 0
20 22 23 24 0
-16 -22 -28 -34 0
16 22 28 34 0
-21 -22 -23 -24 0
21 22 23 24 0
-3 -9 -15 -21 0
3 9 15 21 0
-13 -14 -15 -16 0
13 14 15 16 0
-3 -9 -15 -27 0
3 9 15 27 0
-13 -14 -15 -17 0
13 14 15 17 0
-3 -9 -21 -27 0
3 9 21 27 0
-13 -14 -16 -17 0
13 14 16 17 0
-3 -15 -21 -27 0
3 15 21 27 0
-13 -15 -16 -17 0
13 15 16 17 0
-9 -15 -21 -27 0
9 15 21 27 0
-14 -15 -16 -17 0
14 15 16 17 0
-3 -9 -15 -33 0
3 9 15 33 0
-13 -14 -15 -18 0
13 14 15 18 0
-3 -9 -21 -33 0
3 9 21 33 0
-13 -14 -16 -18 0
13 14 16 18 0
-3 -15 -21 -33 0
3 15 21 33 0
-13 -15 -16 -18 0
13 15 16 18 0
-9 -15 -21 -33 0
9 15 21 33 0
-14 -15 -16 -18 0
14 15 16 18 0
-3 -9 -27 -33 0
3 9 27 33 0
-13 -14 -17 -18 0
13 14 17 18 0
-3 -15 -27 -33 0
3 15 27 33 0
-13 -15 -17 -18 0
13 15 17 18 0
-9 -15 -27 -33 0
9 15 27 33 0
-14 -15 -17 -18 0
14 15 17 18 0
-3 -21 -27 -33 0
3 21 27 33 0
-13 -16 -17 -18 0
13 16 17 18 0
-9 -21 -27 -33 0
9 21 27 33 0
-14 -16 -17 -18 0
14 16 17 18 0
-15 -21 -27 -33 0
15 21 27 33 0
-15 -16 -17 -18 0
15 16 17 18 0
-2 -8 -14 -20 0
2 8 14 20 0
-7 -8 -9 -10 0
7 8 9 10 0
-2 -8 -14 -26 0
2 8 14 26 0
-7 -8 -9 -11 0
7 8 9 11 0
-2 -8 -20 -26 0
2 8 20 26 0
-7 -8 -10 -11 0
7 8 10 11 0
-2 -14 -20 -26 0
2 14 20 26 0
-7 -9 -10 -11 0
7 9 10 11 0
-8 -14 -20 -26 0
8 14 20 26 0
-8 -9 -10 -11 0
8 9 10 11 0
-2 -8 -14 -32 0
2 8 14 32 0
-7 -8 -9 -12 0
7 8 9 12 0
-2 -8 -20 -32 0
2 8 20 32 0
-7 -8 -10 -12 0
7 8 10 12 0
-2 -14 -20 -32 0
2 14 20 32 0
-7 -9 -10 -12 0
7 9 10 12 0
-8 -14 -20 -32 0
8 14 20 32 0
-8 -9 -10 -12 0
8 9 10 12 0
-2 -8 -26 -32 0
2 8 26 32 0
-7 -8 -11 -12 0
7 8 11 12 0
-2 -14 -26 -32 0
2 14 26 32 0
-7 -9 -11 -12 0
7 9 11 12 0
-8 -14 -26 -32 0
8 14 26 32 0
-8 -9 -11 -12 0
8 9 11 12 0
-2 -20 -26 -32 0
2 20 26 32 0
-7 -10 -11 -12 0
7 10 11 12 0
-8 -20 -26 -32 0
8 20 26 32 0
-8 -10 -11 -12 0
8 10 11 12 0
-14 -20 -26 -32 0
14 20 26 32 0
-9 -10 -11 -12 0
9 10 11 12 0
-1 -7 -13 -19 0
1 7 13 19 0
-1 -2 -3 -4 0
1 2 3 4 0
-1 -7 -13 -25 0
1 7 13 25 0
-1 -2 -3 -5 0
1 2 3 5 0
-1 -7 -19 -25 0
1 7 19 25 0
-1 -2 -4 -5 0
1 2 4 5 0
-1 -13 -19 -25 0
1 13 19 25 0
-1 -3 -4 -5 0
1 3 4 5 0
-7 -13 -19 -25 0
7 13 19 25 0
-2 -3 -4 -5 0
2 3 4 5 0
-1 -7 -13 -31 0
1 7 13 31 0
-1 -2 -3 -6 0
1 2 3 6 0
-1 -7 -19 -31 0
1 7 19 31 0
-1 -2 -4 -6 0
1 2 4 6 0
-1 -13 -19 -31 0
1 13 19 31 0
-1 -3 -4 -6 0
1 3 4 6 0
-7 -13 -19 -31 0
7 13 19 31 0
-2 -3 -4 -6 0
2 3 4 6 0
-1 -7 -25 -31 0
1 7 25 31 0
-1 -2 -5 -6 0
1 2 5 6 0
-1 -13 -25 -31 0
1 13 25 31 0
-1 -3 -5 -6 0
1 3 5 6 0
-7 -13 -25 -31 0
7 13 25 31 0
-2 -3 -5 -6 0
2 3 5 6 0
-1 -19 -25 -31 0
1 19 25 31 0
-1 -4 -5 -6 0
1 4 5 6 0
-7 -19 -25 -31 0
7 19 25 31 0
-2 -4 -5 -6 0
2 4 5 6 0
-13 -19 -25 -31 0
13 19 25 31 0
-3 -4 -5 -6 0
3 4 5 6 0
-24 -30 -36 0
24 30 36 0
-18 -24 -30 0
18 24 30 0
-12 -18 -24 0
12 18 24 0
-6 -12 -18 0
6 12 18 0
-23 -29 -35 0
23 29 35 0
-17 -23 -29 0
17 23 29 0
-11 -17 -23 0
11 17 23 0
-5 -11 -17 0
5 11 17 0
-22 -28 -34 0
22 28 34 0
-16 -22 -28 0
16 22 28 0
-10 -16 -22 0
10 16 22 0
-4 -10 -16 0
4 10 16 0
-21 -27 -33 0
21 27 33 0
-15 -21 -27 0
15 21 27 0
-9 -15 -21 0
9 15 21 0
-3 -9 -15 0
3 9 15 0
-20 -26 -32 0
20 26 32 0
-14 -20 -26 0
14 20 26 0
-8 -14 -20 0
8 14 20 0
-2 -8 -14 0
2 8 14 0
-19 -25 -31 0
19 25 31 0
-13 -19 -25 0
13 19 25 0
-7 -13 -19 0
7 13 19 0
-1 -7 -13 0
1 7 13 0
-34 -35 -36 0
34 35 36 0
-33 -34 -35 0
33 34 35 0
-32 -33 -34 0
32 33 34 0
-31 -32 -33 0
31 32 33 0
-28 -29 -30 0
28 29 30 0
-27 -28 -29 0
27 28 29 0
-26 -27 -28 0
26 27 28 0
-25 -26 -27 0
25 26 27 0
-22 -23 -24 0
22 23 24 0
-21 -22 -23 0
21 22 23 0
-20 -21 -22 0
20 21 22 0
-19 -20 -21 0
19 20 21 0
-16 -17 -18 0
16 17 18 0
-15 -16 -17 0
15 16 17 0
-14 -15 -16 0
14 15 16 0
-13 -14 -15 0
13 14 15 0
-10 -11 -12 0
10 11 12 0
-9 -10 -11 0
9 10 11 0
-8 -9 -10 0
8 9 10 0
-7 -8 -9 0
7 8 9 0
-4 -5 -6 0
4 5 6 0
-3 -4 -5 0
3 4 5 0
-2 -3 -4 0
2 3 4 0
-1 -2 -3 0
1 2 3 0
34 0
-32 0
-31 0
-30 0
27 0
23 0
14 0
-10 0
-9 0
7 0
6 0
-3 0
